
Log started (V20.1.0.0) Sat Aug 20 02:01:13 2022


Problem 'pp.lp' read.
Read time = 0.00 sec. (0.00 ticks)
Version identifier: 20.1.0.0 | 2020-11-10 | 9bedb6d68
Tried aggregator 1 time.
LP Presolve eliminated 0 rows and 1 columns.
Reduced LP has 3 rows, 3 columns, and 9 nonzeros.
Presolve time = 0.02 sec. (0.00 ticks)

Iteration log . . .
Iteration:     1   Dual objective     =           250.000000

Dual simplex - Optimal:  Objective =  2.5000000000e+02
Solution time =    0.02 sec.  Iterations = 1 (0)
Deterministic time = 0.01 ticks  (0.37 ticks/sec)


Variable Name           Solution Value
x1                            5.000000
All other variables matching '*' are 0.

Log started (V20.1.0.0) Sat Aug 20 02:03:12 2022

No problem exists.

Problem 'pp.lp' read.
Read time = 0.00 sec. (0.00 ticks)
Version identifier: 20.1.0.0 | 2020-11-10 | 9bedb6d68
Tried aggregator 1 time.
LP Presolve eliminated 0 rows and 1 columns.
Reduced LP has 3 rows, 3 columns, and 9 nonzeros.
Presolve time = 0.00 sec. (0.00 ticks)

Iteration log . . .
Iteration:     1   Dual objective     =           300.000000

Dual simplex - Optimal:  Objective =  3.0000000000e+02
Solution time =    0.00 sec.  Iterations = 1 (0)
Deterministic time = 0.01 ticks  (5.97 ticks/sec)


Variable Name           Solution Value
x1                            6.000000
All other variables matching '*' are 0.

Log started (V20.1.0.0) Sat Aug 20 02:09:29 2022


Problem 'pd.lp' read.
Read time = 0.00 sec. (0.00 ticks)
Version identifier: 20.1.0.0 | 2020-11-10 | 9bedb6d68
Dual infeasible due to empty column 'lambda'.
Presolve time = 0.00 sec. (0.00 ticks)
Presolve - Unbounded or infeasible.
Solution time =    0.00 sec.
Deterministic time = 0.00 ticks  (0.39 ticks/sec)
No solution exists.

Log started (V20.1.0.0) Sat Aug 20 02:12:42 2022


Problem 'pp.lp' read.
Read time = 0.00 sec. (0.00 ticks)
Version identifier: 20.1.0.0 | 2020-11-10 | 9bedb6d68
Tried aggregator 1 time.
LP Presolve eliminated 0 rows and 1 columns.
Reduced LP has 3 rows, 3 columns, and 9 nonzeros.
Presolve time = 0.00 sec. (0.00 ticks)

Iteration log . . .
Iteration:     1   Dual objective     =           250.000000

Dual simplex - Optimal:  Objective =  2.5000000000e+02
Solution time =    0.00 sec.  Iterations = 1 (0)
Deterministic time = 0.01 ticks  (5.97 ticks/sec)


Variable Name           Solution Value
x1                            5.000000
All other variables matching '*' are 0.
